(set-logic QF_UF)
(set-option :produce-models true)
(declare-const A Bool)
(declare-const B Bool)
(declare-const C Bool)
(declare-const D Bool)
(declare-const E Bool)
(assert
	(and
		(or (not A) B )
		(or (not B) C )
		(or (not C) D )
		(or (not D) E )
		(or A (not B) )
		(or B (not C) )
		(or C (not D) )
		(or D (not E) )	
	) 
)
(check-sat)
(get-model)
(exit)
